p cnf 529 1
529 0
w 1 0.102462
w 2 1 1
w 2 -1 0
w 3 2 0
w 3 -2 1
w 4 3 0.752389
w 4 -3 0.130244
w 5 4 1
w 5 -4 0
w 6 5 1
w 6 -5 0
w 7 6 0.221074
w 7 -6 0.0346334
w 8 7 1
w 8 -7 0
w 9 8 0
w 9 -8 1
w 10 9 1
w 10 -9 0
w 11 10 1
w 11 -10 0
w 12 11 0.0481162
w 12 -11 0.0374379
w 13 12 1
w 13 -12 0
w 14 13 1
w 14 -13 0
w 15 14 0
w 15 -14 1
w 16 15 1
w 16 -15 0
w 17 16 0
w 17 -16 1
w 18 17 0.843599
w 18 -17 0.20816
w 19 18 1
w 19 -18 0
w 20 19 1
w 20 -19 0
w 21 20 1
w 21 -20 0
w 22 21 0.837041
w 22 -21 0.571589
w 23 22 1
w 23 -22 0
w 24 1 0.253652
w 24 -1 0.0415777
w 25 24 2 0
w 25 24 -2 1
w 25 -24 2 1
w 25 -24 -2 0
w 26 25 3 0
w 26 25 -3 0
w 26 -25 3 1
w 26 -25 -3 0
w 27 26 4 0
w 27 26 -4 0
w 27 -26 4 0
w 27 -26 -4 1
w 28 27 5 0.356025
w 28 27 -5 0.440648
w 28 -27 5 0.505297
w 28 -27 -5 0.963734
w 29 28 6 1
w 29 28 -6 0
w 29 -28 6 0
w 29 -28 -6 0
w 30 29 7 0
w 30 29 -7 1
w 30 -29 7 0
w 30 -29 -7 1
w 31 30 8 0
w 31 30 -8 1
w 31 -30 8 0
w 31 -30 -8 1
w 32 31 9 1
w 32 31 -9 1
w 32 -31 9 1
w 32 -31 -9 0
w 33 32 10 1
w 33 32 -10 1
w 33 -32 10 0
w 33 -32 -10 1
w 34 33 11 0
w 34 33 -11 0
w 34 -33 11 1
w 34 -33 -11 0
w 35 34 12 1
w 35 34 -12 1
w 35 -34 12 1
w 35 -34 -12 0
w 36 35 13 0.130175
w 36 35 -13 0.0483423
w 36 -35 13 0.0709786
w 36 -35 -13 0.519053
w 37 36 14 0
w 37 36 -14 1
w 37 -36 14 0
w 37 -36 -14 1
w 38 37 15 0
w 38 37 -15 1
w 38 -37 15 0
w 38 -37 -15 0
w 39 38 16 0
w 39 38 -16 1
w 39 -38 16 1
w 39 -38 -16 1
w 40 39 17 1
w 40 39 -17 0
w 40 -39 17 0
w 40 -39 -17 0
w 41 40 18 0
w 41 40 -18 1
w 41 -40 18 0
w 41 -40 -18 1
w 42 41 19 1
w 42 41 -19 1
w 42 -41 19 0
w 42 -41 -19 1
w 43 42 20 0
w 43 42 -20 1
w 43 -42 20 1
w 43 -42 -20 0
w 44 43 21 0
w 44 43 -21 0
w 44 -43 21 1
w 44 -43 -21 0
w 45 44 22 0
w 45 44 -22 0
w 45 -44 22 0
w 45 -44 -22 1
w 46 45 23 0
w 46 45 -23 1
w 46 -45 23 0
w 46 -45 -23 0
w 47 24 1
w 47 -24 0
w 48 47 25 0
w 48 47 -25 1
w 48 -47 25 0
w 48 -47 -25 1
w 49 48 26 1
w 49 48 -26 1
w 49 -48 26 1
w 49 -48 -26 0
w 50 49 27 0
w 50 49 -27 1
w 50 -49 27 0
w 50 -49 -27 1
w 51 50 28 0
w 51 50 -28 0
w 51 -50 28 0
w 51 -50 -28 1
w 52 51 29 0
w 52 51 -29 0
w 52 -51 29 1
w 52 -51 -29 0
w 53 52 30 0.566008
w 53 52 -30 0.0703534
w 53 -52 30 0.236273
w 53 -52 -30 0.80096
w 54 53 31 1
w 54 53 -31 0
w 54 -53 31 1
w 54 -53 -31 0
w 55 54 32 0
w 55 54 -32 1
w 55 -54 32 0
w 55 -54 -32 0
w 56 55 33 0
w 56 55 -33 1
w 56 -55 33 0
w 56 -55 -33 1
w 57 56 34 0
w 57 56 -34 1
w 57 -56 34 1
w 57 -56 -34 1
w 58 57 35 1
w 58 57 -35 0
w 58 -57 35 0
w 58 -57 -35 1
w 59 58 36 1
w 59 58 -36 0
w 59 -58 36 0
w 59 -58 -36 0
w 60 59 37 1
w 60 59 -37 1
w 60 -59 37 0
w 60 -59 -37 1
w 61 60 38 0
w 61 60 -38 1
w 61 -60 38 0
w 61 -60 -38 0
w 62 61 39 0.667856
w 62 61 -39 0.548932
w 62 -61 39 0.437261
w 62 -61 -39 0.248675
w 63 62 40 0
w 63 62 -40 0
w 63 -62 40 1
w 63 -62 -40 0
w 64 63 41 1
w 64 63 -41 1
w 64 -63 41 1
w 64 -63 -41 0
w 65 64 42 1
w 65 64 -42 0
w 65 -64 42 1
w 65 -64 -42 1
w 66 65 43 0
w 66 65 -43 0
w 66 -65 43 0
w 66 -65 -43 1
w 67 66 44 0.995377
w 67 66 -44 0.392437
w 67 -66 44 0.0994939
w 67 -66 -44 0.347461
w 68 67 45 0
w 68 67 -45 1
w 68 -67 45 0
w 68 -67 -45 0
w 69 68 46 1
w 69 68 -46 0
w 69 -68 46 0
w 69 -68 -46 1
w 70 47 0
w 70 -47 1
w 71 70 48 0.375013
w 71 70 -48 0.879709
w 71 -70 48 0.442241
w 71 -70 -48 0.258231
w 72 71 49 0
w 72 71 -49 1
w 72 -71 49 0
w 72 -71 -49 0
w 73 72 50 1
w 73 72 -50 0
w 73 -72 50 0
w 73 -72 -50 1
w 74 73 51 1
w 74 73 -51 0
w 74 -73 51 1
w 74 -73 -51 1
w 75 74 52 0.977272
w 75 74 -52 0.558757
w 75 -74 52 0.848073
w 75 -74 -52 0.193642
w 76 75 53 1
w 76 75 -53 1
w 76 -75 53 0
w 76 -75 -53 0
w 77 76 54 0
w 77 76 -54 1
w 77 -76 54 1
w 77 -76 -54 0
w 78 77 55 0.450594
w 78 77 -55 0.397168
w 78 -77 55 0.746251
w 78 -77 -55 0.876348
w 79 78 56 0.350984
w 79 78 -56 0.926945
w 79 -78 56 0.655512
w 79 -78 -56 0.318187
w 80 79 57 0.38893
w 80 79 -57 0.677827
w 80 -79 57 0.956848
w 80 -79 -57 0.46981
w 81 80 58 1
w 81 80 -58 1
w 81 -80 58 1
w 81 -80 -58 0
w 82 81 59 0
w 82 81 -59 1
w 82 -81 59 1
w 82 -81 -59 0
w 83 82 60 1
w 83 82 -60 0
w 83 -82 60 1
w 83 -82 -60 0
w 84 83 61 0
w 84 83 -61 1
w 84 -83 61 1
w 84 -83 -61 1
w 85 84 62 0
w 85 84 -62 0
w 85 -84 62 0
w 85 -84 -62 1
w 86 85 63 0.115202
w 86 85 -63 0.882933
w 86 -85 63 0.519447
w 86 -85 -63 0.0720494
w 87 86 64 1
w 87 86 -64 0
w 87 -86 64 1
w 87 -86 -64 0
w 88 87 65 1
w 88 87 -65 0
w 88 -87 65 1
w 88 -87 -65 1
w 89 88 66 1
w 89 88 -66 0
w 89 -88 66 0
w 89 -88 -66 0
w 90 89 67 1
w 90 89 -67 0
w 90 -89 67 1
w 90 -89 -67 0
w 91 90 68 1
w 91 90 -68 0
w 91 -90 68 0
w 91 -90 -68 1
w 92 91 69 0.880787
w 92 91 -69 0.572087
w 92 -91 69 0.671994
w 92 -91 -69 0.400234
w 93 70 1
w 93 -70 0
w 94 93 71 1
w 94 93 -71 1
w 94 -93 71 0
w 94 -93 -71 1
w 95 94 72 1
w 95 94 -72 1
w 95 -94 72 1
w 95 -94 -72 0
w 96 95 73 0
w 96 95 -73 0
w 96 -95 73 0
w 96 -95 -73 1
w 97 96 74 0.752506
w 97 96 -74 0.967974
w 97 -96 74 0.415858
w 97 -96 -74 0.986339
w 98 97 75 0
w 98 97 -75 1
w 98 -97 75 0
w 98 -97 -75 0
w 99 98 76 1
w 99 98 -76 0
w 99 -98 76 1
w 99 -98 -76 0
w 100 99 77 0
w 100 99 -77 1
w 100 -99 77 0
w 100 -99 -77 0
w 101 100 78 0
w 101 100 -78 1
w 101 -100 78 1
w 101 -100 -78 1
w 102 101 79 0.678142
w 102 101 -79 0.698104
w 102 -101 79 0.329564
w 102 -101 -79 0.578267
w 103 102 80 1
w 103 102 -80 0
w 103 -102 80 0
w 103 -102 -80 0
w 104 103 81 1
w 104 103 -81 0
w 104 -103 81 0
w 104 -103 -81 0
w 105 104 82 0
w 105 104 -82 1
w 105 -104 82 0
w 105 -104 -82 1
w 106 105 83 0
w 106 105 -83 1
w 106 -105 83 1
w 106 -105 -83 1
w 107 106 84 1
w 107 106 -84 0
w 107 -106 84 0
w 107 -106 -84 1
w 108 107 85 0
w 108 107 -85 0
w 108 -107 85 1
w 108 -107 -85 0
w 109 108 86 0
w 109 108 -86 0
w 109 -108 86 1
w 109 -108 -86 0
w 110 109 87 0
w 110 109 -87 1
w 110 -109 87 0
w 110 -109 -87 0
w 111 110 88 0
w 111 110 -88 0
w 111 -110 88 0
w 111 -110 -88 1
w 112 111 89 0
w 112 111 -89 0
w 112 -111 89 0
w 112 -111 -89 1
w 113 112 90 0.923993
w 113 112 -90 0.456137
w 113 -112 90 0.348364
w 113 -112 -90 0.891292
w 114 113 91 0.516334
w 114 113 -91 0.556695
w 114 -113 91 0.707534
w 114 -113 -91 0.262572
w 115 114 92 1
w 115 114 -92 0
w 115 -114 92 0
w 115 -114 -92 0
w 116 93 0
w 116 -93 1
w 117 116 94 0
w 117 116 -94 0
w 117 -116 94 1
w 117 -116 -94 0
w 118 117 95 0.753001
w 118 117 -95 0.474012
w 118 -117 95 0.329556
w 118 -117 -95 0.765924
w 119 118 96 0.169575
w 119 118 -96 0.579304
w 119 -118 96 0.822554
w 119 -118 -96 0.0935679
w 120 119 97 1
w 120 119 -97 0
w 120 -119 97 1
w 120 -119 -97 1
w 121 120 98 0
w 121 120 -98 1
w 121 -120 98 1
w 121 -120 -98 0
w 122 121 99 0.439936
w 122 121 -99 0.899724
w 122 -121 99 0.145204
w 122 -121 -99 0.0987462
w 123 122 100 0
w 123 122 -100 0
w 123 -122 100 1
w 123 -122 -100 0
w 124 123 101 0.895538
w 124 123 -101 0.727522
w 124 -123 101 0.431185
w 124 -123 -101 0.225094
w 125 124 102 0
w 125 124 -102 1
w 125 -124 102 1
w 125 -124 -102 0
w 126 125 103 1
w 126 125 -103 1
w 126 -125 103 1
w 126 -125 -103 0
w 127 126 104 1
w 127 126 -104 0
w 127 -126 104 0
w 127 -126 -104 1
w 128 127 105 0.66885
w 128 127 -105 0.0760168
w 128 -127 105 0.123711
w 128 -127 -105 0.767596
w 129 128 106 1
w 129 128 -106 0
w 129 -128 106 1
w 129 -128 -106 0
w 130 129 107 0.485217
w 130 129 -107 0.137876
w 130 -129 107 0.242134
w 130 -129 -107 0.710311
w 131 130 108 0
w 131 130 -108 0
w 131 -130 108 0
w 131 -130 -108 1
w 132 131 109 0.243769
w 132 131 -109 0.0663128
w 132 -131 109 0.872947
w 132 -131 -109 0.319694
w 133 132 110 0
w 133 132 -110 1
w 133 -132 110 0
w 133 -132 -110 1
w 134 133 111 0
w 134 133 -111 1
w 134 -133 111 1
w 134 -133 -111 0
w 135 134 112 0
w 135 134 -112 1
w 135 -134 112 1
w 135 -134 -112 0
w 136 135 113 1
w 136 135 -113 1
w 136 -135 113 0
w 136 -135 -113 0
w 137 136 114 1
w 137 136 -114 0
w 137 -136 114 0
w 137 -136 -114 1
w 138 137 115 1
w 138 137 -115 1
w 138 -137 115 1
w 138 -137 -115 0
w 139 116 1
w 139 -116 0
w 140 139 117 0
w 140 139 -117 0
w 140 -139 117 1
w 140 -139 -117 1
w 141 140 118 0
w 141 140 -118 0
w 141 -140 118 1
w 141 -140 -118 0
w 142 141 119 0
w 142 141 -119 1
w 142 -141 119 1
w 142 -141 -119 0
w 143 142 120 0.4352
w 143 142 -120 0.857054
w 143 -142 120 0.220129
w 143 -142 -120 0.498248
w 144 143 121 0
w 144 143 -121 1
w 144 -143 121 1
w 144 -143 -121 1
w 145 144 122 0.682573
w 145 144 -122 0.724769
w 145 -144 122 0.297081
w 145 -144 -122 0.391651
w 146 145 123 0.343069
w 146 145 -123 0.446172
w 146 -145 123 0.350228
w 146 -145 -123 0.159008
w 147 146 124 0.796625
w 147 146 -124 0.820914
w 147 -146 124 0.650772
w 147 -146 -124 0.989345
w 148 147 125 0
w 148 147 -125 0
w 148 -147 125 1
w 148 -147 -125 0
w 149 148 126 0.223547
w 149 148 -126 0.799072
w 149 -148 126 0.843089
w 149 -148 -126 0.443677
w 150 149 127 1
w 150 149 -127 1
w 150 -149 127 0
w 150 -149 -127 1
w 151 150 128 0
w 151 150 -128 1
w 151 -150 128 0
w 151 -150 -128 1
w 152 151 129 0
w 152 151 -129 1
w 152 -151 129 0
w 152 -151 -129 0
w 153 152 130 1
w 153 152 -130 1
w 153 -152 130 1
w 153 -152 -130 0
w 154 153 131 1
w 154 153 -131 1
w 154 -153 131 0
w 154 -153 -131 0
w 155 154 132 1
w 155 154 -132 0
w 155 -154 132 1
w 155 -154 -132 1
w 156 155 133 0
w 156 155 -133 0
w 156 -155 133 1
w 156 -155 -133 1
w 157 156 134 0
w 157 156 -134 1
w 157 -156 134 1
w 157 -156 -134 0
w 158 157 135 0.48713
w 158 157 -135 0.307341
w 158 -157 135 0.0291594
w 158 -157 -135 0.11602
w 159 158 136 0.0566713
w 159 158 -136 0.395683
w 159 -158 136 0.263139
w 159 -158 -136 0.0941139
w 160 159 137 1
w 160 159 -137 0
w 160 -159 137 0
w 160 -159 -137 1
w 161 160 138 1
w 161 160 -138 1
w 161 -160 138 0
w 161 -160 -138 0
w 162 139 0.145926
w 162 -139 0.606013
w 163 162 140 0
w 163 162 -140 1
w 163 -162 140 0
w 163 -162 -140 0
w 164 163 141 1
w 164 163 -141 1
w 164 -163 141 1
w 164 -163 -141 0
w 165 164 142 1
w 165 164 -142 0
w 165 -164 142 0
w 165 -164 -142 1
w 166 165 143 1
w 166 165 -143 0
w 166 -165 143 0
w 166 -165 -143 0
w 167 166 144 1
w 167 166 -144 1
w 167 -166 144 1
w 167 -166 -144 0
w 168 167 145 0.143028
w 168 167 -145 0.278695
w 168 -167 145 0.115599
w 168 -167 -145 0.749041
w 169 168 146 0
w 169 168 -146 1
w 169 -168 146 0
w 169 -168 -146 1
w 170 169 147 0.437425
w 170 169 -147 0.234499
w 170 -169 147 0.150943
w 170 -169 -147 0.207653
w 171 170 148 0
w 171 170 -148 0
w 171 -170 148 0
w 171 -170 -148 1
w 172 171 149 1
w 172 171 -149 1
w 172 -171 149 1
w 172 -171 -149 0
w 173 172 150 0
w 173 172 -150 0
w 173 -172 150 1
w 173 -172 -150 1
w 174 173 151 1
w 174 173 -151 1
w 174 -173 151 0
w 174 -173 -151 0
w 175 174 152 1
w 175 174 -152 1
w 175 -174 152 0
w 175 -174 -152 0
w 176 175 153 1
w 176 175 -153 0
w 176 -175 153 0
w 176 -175 -153 0
w 177 176 154 1
w 177 176 -154 0
w 177 -176 154 0
w 177 -176 -154 0
w 178 177 155 0
w 178 177 -155 1
w 178 -177 155 0
w 178 -177 -155 1
w 179 178 156 1
w 179 178 -156 0
w 179 -178 156 1
w 179 -178 -156 0
w 180 179 157 0
w 180 179 -157 1
w 180 -179 157 0
w 180 -179 -157 0
w 181 180 158 1
w 181 180 -158 0
w 181 -180 158 0
w 181 -180 -158 1
w 182 181 159 0.619661
w 182 181 -159 0.394899
w 182 -181 159 0.531099
w 182 -181 -159 0.538718
w 183 182 160 1
w 183 182 -160 0
w 183 -182 160 0
w 183 -182 -160 1
w 184 183 161 0.693912
w 184 183 -161 0.578181
w 184 -183 161 0.0227696
w 184 -183 -161 0.430949
w 185 162 0.155925
w 185 -162 0.0931771
w 186 185 163 0
w 186 185 -163 1
w 186 -185 163 1
w 186 -185 -163 0
w 187 186 164 1
w 187 186 -164 0
w 187 -186 164 0
w 187 -186 -164 1
w 188 187 165 1
w 188 187 -165 0
w 188 -187 165 0
w 188 -187 -165 0
w 189 188 166 1
w 189 188 -166 1
w 189 -188 166 1
w 189 -188 -166 0
w 190 189 167 1
w 190 189 -167 1
w 190 -189 167 0
w 190 -189 -167 1
w 191 190 168 1
w 191 190 -168 0
w 191 -190 168 0
w 191 -190 -168 0
w 192 191 169 1
w 192 191 -169 1
w 192 -191 169 0
w 192 -191 -169 1
w 193 192 170 0
w 193 192 -170 1
w 193 -192 170 1
w 193 -192 -170 1
w 194 193 171 0
w 194 193 -171 1
w 194 -193 171 0
w 194 -193 -171 0
w 195 194 172 1
w 195 194 -172 1
w 195 -194 172 0
w 195 -194 -172 1
w 196 195 173 0
w 196 195 -173 0
w 196 -195 173 0
w 196 -195 -173 1
w 197 196 174 0.0863043
w 197 196 -174 0.602016
w 197 -196 174 0.344372
w 197 -196 -174 0.0408017
w 198 197 175 0
w 198 197 -175 0
w 198 -197 175 1
w 198 -197 -175 1
w 199 198 176 0.882426
w 199 198 -176 0.200085
w 199 -198 176 0.144035
w 199 -198 -176 0.635892
w 200 199 177 0
w 200 199 -177 0
w 200 -199 177 0
w 200 -199 -177 1
w 201 200 178 0.983348
w 201 200 -178 0.0486056
w 201 -200 178 0.139915
w 201 -200 -178 0.520996
w 202 201 179 1
w 202 201 -179 1
w 202 -201 179 0
w 202 -201 -179 1
w 203 202 180 0.14943
w 203 202 -180 0.31598
w 203 -202 180 0.223263
w 203 -202 -180 0.190232
w 204 203 181 1
w 204 203 -181 1
w 204 -203 181 1
w 204 -203 -181 0
w 205 204 182 1
w 205 204 -182 1
w 205 -204 182 1
w 205 -204 -182 0
w 206 205 183 0.174069
w 206 205 -183 0.814299
w 206 -205 183 0.432169
w 206 -205 -183 0.876406
w 207 206 184 0
w 207 206 -184 0
w 207 -206 184 0
w 207 -206 -184 1
w 208 185 0
w 208 -185 1
w 209 208 186 0
w 209 208 -186 1
w 209 -208 186 0
w 209 -208 -186 0
w 210 209 187 1
w 210 209 -187 0
w 210 -209 187 0
w 210 -209 -187 0
w 211 210 188 0
w 211 210 -188 0
w 211 -210 188 0
w 211 -210 -188 1
w 212 211 189 0.0789805
w 212 211 -189 0.150267
w 212 -211 189 0.600349
w 212 -211 -189 0.25305
w 213 212 190 0.0325181
w 213 212 -190 0.129456
w 213 -212 190 0.441524
w 213 -212 -190 0.453875
w 214 213 191 0.967088
w 214 213 -191 0.0151458
w 214 -213 191 0.36996
w 214 -213 -191 0.148686
w 215 214 192 0
w 215 214 -192 0
w 215 -214 192 1
w 215 -214 -192 0
w 216 215 193 0.564617
w 216 215 -193 0.520836
w 216 -215 193 0.371948
w 216 -215 -193 0.583008
w 217 216 194 0
w 217 216 -194 0
w 217 -216 194 1
w 217 -216 -194 1
w 218 217 195 1
w 218 217 -195 0
w 218 -217 195 0
w 218 -217 -195 1
w 219 218 196 0
w 219 218 -196 0
w 219 -218 196 0
w 219 -218 -196 1
w 220 219 197 1
w 220 219 -197 0
w 220 -219 197 1
w 220 -219 -197 1
w 221 220 198 0
w 221 220 -198 0
w 221 -220 198 1
w 221 -220 -198 0
w 222 221 199 0
w 222 221 -199 0
w 222 -221 199 1
w 222 -221 -199 1
w 223 222 200 1
w 223 222 -200 1
w 223 -222 200 0
w 223 -222 -200 1
w 224 223 201 0
w 224 223 -201 1
w 224 -223 201 0
w 224 -223 -201 0
w 225 224 202 0
w 225 224 -202 0
w 225 -224 202 0
w 225 -224 -202 1
w 226 225 203 1
w 226 225 -203 0
w 226 -225 203 1
w 226 -225 -203 1
w 227 226 204 1
w 227 226 -204 1
w 227 -226 204 0
w 227 -226 -204 0
w 228 227 205 0.106784
w 228 227 -205 0.671144
w 228 -227 205 0.415277
w 228 -227 -205 0.416073
w 229 228 206 0.750603
w 229 228 -206 0.570472
w 229 -228 206 0.0140324
w 229 -228 -206 0.182815
w 230 229 207 0.542356
w 230 229 -207 0.790893
w 230 -229 207 0.729585
w 230 -229 -207 0.180984
w 231 208 0.849131
w 231 -208 0.962437
w 232 231 209 0
w 232 231 -209 1
w 232 -231 209 1
w 232 -231 -209 0
w 233 232 210 1
w 233 232 -210 1
w 233 -232 210 1
w 233 -232 -210 0
w 234 233 211 0.929924
w 234 233 -211 0.808749
w 234 -233 211 0.823258
w 234 -233 -211 0.0367082
w 235 234 212 0
w 235 234 -212 1
w 235 -234 212 0
w 235 -234 -212 1
w 236 235 213 1
w 236 235 -213 1
w 236 -235 213 0
w 236 -235 -213 1
w 237 236 214 0.711058
w 237 236 -214 0.212931
w 237 -236 214 0.790733
w 237 -236 -214 0.56019
w 238 237 215 1
w 238 237 -215 1
w 238 -237 215 0
w 238 -237 -215 0
w 239 238 216 0
w 239 238 -216 1
w 239 -238 216 0
w 239 -238 -216 1
w 240 239 217 0.605355
w 240 239 -217 0.325883
w 240 -239 217 0.580251
w 240 -239 -217 0.428614
w 241 240 218 1
w 241 240 -218 1
w 241 -240 218 0
w 241 -240 -218 1
w 242 241 219 0
w 242 241 -219 1
w 242 -241 219 0
w 242 -241 -219 1
w 243 242 220 0
w 243 242 -220 1
w 243 -242 220 0
w 243 -242 -220 0
w 244 243 221 1
w 244 243 -221 1
w 244 -243 221 1
w 244 -243 -221 0
w 245 244 222 0
w 245 244 -222 0
w 245 -244 222 1
w 245 -244 -222 0
w 246 245 223 0
w 246 245 -223 0
w 246 -245 223 1
w 246 -245 -223 0
w 247 246 224 0.892464
w 247 246 -224 0.394764
w 247 -246 224 0.59302
w 247 -246 -224 0.707837
w 248 247 225 0.249307
w 248 247 -225 0.546463
w 248 -247 225 0.955759
w 248 -247 -225 0.0775472
w 249 248 226 1
w 249 248 -226 1
w 249 -248 226 0
w 249 -248 -226 1
w 250 249 227 0
w 250 249 -227 0
w 250 -249 227 0
w 250 -249 -227 1
w 251 250 228 0
w 251 250 -228 1
w 251 -250 228 0
w 251 -250 -228 1
w 252 251 229 1
w 252 251 -229 1
w 252 -251 229 1
w 252 -251 -229 0
w 253 252 230 0.866953
w 253 252 -230 0.124559
w 253 -252 230 0.288871
w 253 -252 -230 0.459973
w 254 231 0.219337
w 254 -231 0.70928
w 255 254 232 0
w 255 254 -232 0
w 255 -254 232 0
w 255 -254 -232 1
w 256 255 233 0
w 256 255 -233 0
w 256 -255 233 1
w 256 -255 -233 0
w 257 256 234 0
w 257 256 -234 1
w 257 -256 234 1
w 257 -256 -234 0
w 258 257 235 0
w 258 257 -235 1
w 258 -257 235 1
w 258 -257 -235 1
w 259 258 236 0.322719
w 259 258 -236 0.433136
w 259 -258 236 0.834988
w 259 -258 -236 0.447278
w 260 259 237 0
w 260 259 -237 0
w 260 -259 237 1
w 260 -259 -237 0
w 261 260 238 0
w 261 260 -238 0
w 261 -260 238 1
w 261 -260 -238 0
w 262 261 239 1
w 262 261 -239 0
w 262 -261 239 0
w 262 -261 -239 1
w 263 262 240 0.710517
w 263 262 -240 0.865938
w 263 -262 240 0.079042
w 263 -262 -240 0.293645
w 264 263 241 1
w 264 263 -241 0
w 264 -263 241 1
w 264 -263 -241 1
w 265 264 242 0
w 265 264 -242 0
w 265 -264 242 0
w 265 -264 -242 1
w 266 265 243 0.418581
w 266 265 -243 0.394639
w 266 -265 243 0.694098
w 266 -265 -243 0.422821
w 267 266 244 0
w 267 266 -244 1
w 267 -266 244 1
w 267 -266 -244 1
w 268 267 245 1
w 268 267 -245 0
w 268 -267 245 1
w 268 -267 -245 1
w 269 268 246 0.117478
w 269 268 -246 0.894056
w 269 -268 246 0.73257
w 269 -268 -246 0.19652
w 270 269 247 0
w 270 269 -247 0
w 270 -269 247 1
w 270 -269 -247 1
w 271 270 248 0.79693
w 271 270 -248 0.999566
w 271 -270 248 0.883465
w 271 -270 -248 0.92055
w 272 271 249 0
w 272 271 -249 0
w 272 -271 249 0
w 272 -271 -249 1
w 273 272 250 0.562342
w 273 272 -250 0.140854
w 273 -272 250 0.975841
w 273 -272 -250 0.0194703
w 274 273 251 1
w 274 273 -251 1
w 274 -273 251 1
w 274 -273 -251 0
w 275 274 252 1
w 275 274 -252 0
w 275 -274 252 1
w 275 -274 -252 0
w 276 275 253 0
w 276 275 -253 0
w 276 -275 253 1
w 276 -275 -253 0
w 277 254 1
w 277 -254 0
w 278 277 255 0
w 278 277 -255 1
w 278 -277 255 1
w 278 -277 -255 0
w 279 278 256 1
w 279 278 -256 1
w 279 -278 256 1
w 279 -278 -256 0
w 280 279 257 1
w 280 279 -257 0
w 280 -279 257 0
w 280 -279 -257 0
w 281 280 258 0
w 281 280 -258 0
w 281 -280 258 1
w 281 -280 -258 0
w 282 281 259 1
w 282 281 -259 0
w 282 -281 259 0
w 282 -281 -259 1
w 283 282 260 0
w 283 282 -260 1
w 283 -282 260 0
w 283 -282 -260 1
w 284 283 261 0
w 284 283 -261 0
w 284 -283 261 0
w 284 -283 -261 1
w 285 284 262 0
w 285 284 -262 1
w 285 -284 262 1
w 285 -284 -262 1
w 286 285 263 0.673108
w 286 285 -263 0.24143
w 286 -285 263 0.586749
w 286 -285 -263 0.466664
w 287 286 264 0.163821
w 287 286 -264 0.967455
w 287 -286 264 0.583858
w 287 -286 -264 0.70749
w 288 287 265 0
w 288 287 -265 1
w 288 -287 265 0
w 288 -287 -265 0
w 289 288 266 0
w 289 288 -266 1
w 289 -288 266 1
w 289 -288 -266 0
w 290 289 267 1
w 290 289 -267 0
w 290 -289 267 1
w 290 -289 -267 1
w 291 290 268 1
w 291 290 -268 1
w 291 -290 268 0
w 291 -290 -268 1
w 292 291 269 1
w 292 291 -269 1
w 292 -291 269 1
w 292 -291 -269 0
w 293 292 270 1
w 293 292 -270 1
w 293 -292 270 1
w 293 -292 -270 0
w 294 293 271 0.751191
w 294 293 -271 0.878403
w 294 -293 271 0.830422
w 294 -293 -271 0.915775
w 295 294 272 0
w 295 294 -272 1
w 295 -294 272 1
w 295 -294 -272 0
w 296 295 273 0.838515
w 296 295 -273 0.139873
w 296 -295 273 0.111003
w 296 -295 -273 0.66508
w 297 296 274 1
w 297 296 -274 1
w 297 -296 274 0
w 297 -296 -274 0
w 298 297 275 0.673372
w 298 297 -275 0.459993
w 298 -297 275 0.219388
w 298 -297 -275 0.266187
w 299 298 276 0
w 299 298 -276 1
w 299 -298 276 1
w 299 -298 -276 1
w 300 277 0.873561
w 300 -277 0.36535
w 301 300 278 0.789336
w 301 300 -278 0.78304
w 301 -300 278 0.77271
w 301 -300 -278 0.0912891
w 302 301 279 1
w 302 301 -279 1
w 302 -301 279 0
w 302 -301 -279 0
w 303 302 280 0
w 303 302 -280 1
w 303 -302 280 0
w 303 -302 -280 1
w 304 303 281 1
w 304 303 -281 1
w 304 -303 281 0
w 304 -303 -281 1
w 305 304 282 0.450446
w 305 304 -282 0.423802
w 305 -304 282 0.157223
w 305 -304 -282 0.473268
w 306 305 283 1
w 306 305 -283 0
w 306 -305 283 0
w 306 -305 -283 0
w 307 306 284 1
w 307 306 -284 1
w 307 -306 284 1
w 307 -306 -284 0
w 308 307 285 0
w 308 307 -285 1
w 308 -307 285 1
w 308 -307 -285 1
w 309 308 286 1
w 309 308 -286 1
w 309 -308 286 0
w 309 -308 -286 0
w 310 309 287 0.523662
w 310 309 -287 0.0106241
w 310 -309 287 0.0917344
w 310 -309 -287 0.654655
w 311 310 288 0.542181
w 311 310 -288 0.0784579
w 311 -310 288 0.946121
w 311 -310 -288 0.0154493
w 312 311 289 1
w 312 311 -289 0
w 312 -311 289 0
w 312 -311 -289 1
w 313 312 290 1
w 313 312 -290 1
w 313 -312 290 1
w 313 -312 -290 0
w 314 313 291 0
w 314 313 -291 0
w 314 -313 291 1
w 314 -313 -291 0
w 315 314 292 0
w 315 314 -292 1
w 315 -314 292 0
w 315 -314 -292 0
w 316 315 293 0
w 316 315 -293 0
w 316 -315 293 0
w 316 -315 -293 1
w 317 316 294 0
w 317 316 -294 1
w 317 -316 294 0
w 317 -316 -294 1
w 318 317 295 0
w 318 317 -295 1
w 318 -317 295 1
w 318 -317 -295 0
w 319 318 296 0.855403
w 319 318 -296 0.816607
w 319 -318 296 0.25184
w 319 -318 -296 0.210545
w 320 319 297 0
w 320 319 -297 1
w 320 -319 297 0
w 320 -319 -297 0
w 321 320 298 0
w 321 320 -298 1
w 321 -320 298 0
w 321 -320 -298 0
w 322 321 299 1
w 322 321 -299 0
w 322 -321 299 0
w 322 -321 -299 0
w 323 300 0.683137
w 323 -300 0.367604
w 324 323 301 0.117695
w 324 323 -301 0.522776
w 324 -323 301 0.0273557
w 324 -323 -301 0.627363
w 325 324 302 1
w 325 324 -302 0
w 325 -324 302 1
w 325 -324 -302 0
w 326 325 303 1
w 326 325 -303 1
w 326 -325 303 1
w 326 -325 -303 0
w 327 326 304 0
w 327 326 -304 0
w 327 -326 304 1
w 327 -326 -304 0
w 328 327 305 0
w 328 327 -305 0
w 328 -327 305 0
w 328 -327 -305 1
w 329 328 306 0
w 329 328 -306 1
w 329 -328 306 0
w 329 -328 -306 1
w 330 329 307 1
w 330 329 -307 1
w 330 -329 307 0
w 330 -329 -307 1
w 331 330 308 1
w 331 330 -308 0
w 331 -330 308 0
w 331 -330 -308 1
w 332 331 309 0
w 332 331 -309 0
w 332 -331 309 0
w 332 -331 -309 1
w 333 332 310 0
w 333 332 -310 1
w 333 -332 310 0
w 333 -332 -310 1
w 334 333 311 0
w 334 333 -311 1
w 334 -333 311 0
w 334 -333 -311 0
w 335 334 312 0
w 335 334 -312 1
w 335 -334 312 0
w 335 -334 -312 0
w 336 335 313 1
w 336 335 -313 0
w 336 -335 313 1
w 336 -335 -313 1
w 337 336 314 1
w 337 336 -314 1
w 337 -336 314 1
w 337 -336 -314 0
w 338 337 315 0
w 338 337 -315 0
w 338 -337 315 0
w 338 -337 -315 1
w 339 338 316 0.578802
w 339 338 -316 0.478939
w 339 -338 316 0.00614978
w 339 -338 -316 0.82689
w 340 339 317 0.308212
w 340 339 -317 0.23423
w 340 -339 317 0.738819
w 340 -339 -317 0.00438844
w 341 340 318 0.428297
w 341 340 -318 0.772197
w 341 -340 318 0.62006
w 341 -340 -318 0.413883
w 342 341 319 1
w 342 341 -319 1
w 342 -341 319 1
w 342 -341 -319 0
w 343 342 320 0.049881
w 343 342 -320 0.425536
w 343 -342 320 0.978061
w 343 -342 -320 0.526278
w 344 343 321 0
w 344 343 -321 0
w 344 -343 321 1
w 344 -343 -321 0
w 345 344 322 1
w 345 344 -322 0
w 345 -344 322 0
w 345 -344 -322 0
w 346 323 1
w 346 -323 0
w 347 346 324 1
w 347 346 -324 1
w 347 -346 324 0
w 347 -346 -324 1
w 348 347 325 1
w 348 347 -325 0
w 348 -347 325 0
w 348 -347 -325 0
w 349 348 326 0.72406
w 349 348 -326 0.284098
w 349 -348 326 0.513473
w 349 -348 -326 0.623028
w 350 349 327 1
w 350 349 -327 0
w 350 -349 327 0
w 350 -349 -327 0
w 351 350 328 1
w 351 350 -328 0
w 351 -350 328 0
w 351 -350 -328 0
w 352 351 329 0.226754
w 352 351 -329 0.192379
w 352 -351 329 0.975057
w 352 -351 -329 0.306633
w 353 352 330 1
w 353 352 -330 1
w 353 -352 330 1
w 353 -352 -330 0
w 354 353 331 0
w 354 353 -331 0
w 354 -353 331 0
w 354 -353 -331 1
w 355 354 332 0
w 355 354 -332 1
w 355 -354 332 0
w 355 -354 -332 0
w 356 355 333 0.907282
w 356 355 -333 0.981382
w 356 -355 333 0.766154
w 356 -355 -333 0.1788
w 357 356 334 0.126693
w 357 356 -334 0.426603
w 357 -356 334 0.334523
w 357 -356 -334 0.18087
w 358 357 335 1
w 358 357 -335 0
w 358 -357 335 1
w 358 -357 -335 1
w 359 358 336 1
w 359 358 -336 1
w 359 -358 336 1
w 359 -358 -336 0
w 360 359 337 0
w 360 359 -337 1
w 360 -359 337 0
w 360 -359 -337 0
w 361 360 338 1
w 361 360 -338 0
w 361 -360 338 1
w 361 -360 -338 0
w 362 361 339 0
w 362 361 -339 1
w 362 -361 339 0
w 362 -361 -339 0
w 363 362 340 1
w 363 362 -340 1
w 363 -362 340 0
w 363 -362 -340 1
w 364 363 341 1
w 364 363 -341 0
w 364 -363 341 1
w 364 -363 -341 1
w 365 364 342 0.861176
w 365 364 -342 0.270967
w 365 -364 342 0.319297
w 365 -364 -342 0.700763
w 366 365 343 0
w 366 365 -343 1
w 366 -365 343 1
w 366 -365 -343 0
w 367 366 344 1
w 367 366 -344 0
w 367 -366 344 0
w 367 -366 -344 0
w 368 367 345 0.542849
w 368 367 -345 0.859817
w 368 -367 345 0.786075
w 368 -367 -345 0.906905
w 369 346 1
w 369 -346 0
w 370 369 347 1
w 370 369 -347 1
w 370 -369 347 0
w 370 -369 -347 0
w 371 370 348 1
w 371 370 -348 1
w 371 -370 348 0
w 371 -370 -348 1
w 372 371 349 0
w 372 371 -349 0
w 372 -371 349 1
w 372 -371 -349 0
w 373 372 350 0.210809
w 373 372 -350 0.264883
w 373 -372 350 0.726774
w 373 -372 -350 0.368603
w 374 373 351 1
w 374 373 -351 1
w 374 -373 351 0
w 374 -373 -351 1
w 375 374 352 1
w 375 374 -352 0
w 375 -374 352 0
w 375 -374 -352 0
w 376 375 353 1
w 376 375 -353 1
w 376 -375 353 0
w 376 -375 -353 1
w 377 376 354 1
w 377 376 -354 0
w 377 -376 354 1
w 377 -376 -354 1
w 378 377 355 0.817854
w 378 377 -355 0.0402623
w 378 -377 355 0.270152
w 378 -377 -355 0.115987
w 379 378 356 0
w 379 378 -356 0
w 379 -378 356 0
w 379 -378 -356 1
w 380 379 357 1
w 380 379 -357 0
w 380 -379 357 1
w 380 -379 -357 1
w 381 380 358 0
w 381 380 -358 0
w 381 -380 358 1
w 381 -380 -358 0
w 382 381 359 0
w 382 381 -359 1
w 382 -381 359 0
w 382 -381 -359 0
w 383 382 360 0.0941837
w 383 382 -360 0.108762
w 383 -382 360 0.759845
w 383 -382 -360 0.314668
w 384 383 361 0
w 384 383 -361 1
w 384 -383 361 1
w 384 -383 -361 0
w 385 384 362 1
w 385 384 -362 0
w 385 -384 362 1
w 385 -384 -362 1
w 386 385 363 0.270706
w 386 385 -363 0.922306
w 386 -385 363 0.199275
w 386 -385 -363 0.494883
w 387 386 364 0.232416
w 387 386 -364 0.790686
w 387 -386 364 0.508493
w 387 -386 -364 0.635861
w 388 387 365 1
w 388 387 -365 1
w 388 -387 365 0
w 388 -387 -365 0
w 389 388 366 0
w 389 388 -366 0
w 389 -388 366 1
w 389 -388 -366 1
w 390 389 367 1
w 390 389 -367 0
w 390 -389 367 0
w 390 -389 -367 0
w 391 390 368 1
w 391 390 -368 1
w 391 -390 368 0
w 391 -390 -368 0
w 392 369 0.368351
w 392 -369 0.469159
w 393 392 370 0.567626
w 393 392 -370 0.964042
w 393 -392 370 0.73006
w 393 -392 -370 0.800042
w 394 393 371 0.238553
w 394 393 -371 0.435902
w 394 -393 371 0.819749
w 394 -393 -371 0.461922
w 395 394 372 1
w 395 394 -372 0
w 395 -394 372 1
w 395 -394 -372 1
w 396 395 373 1
w 396 395 -373 1
w 396 -395 373 1
w 396 -395 -373 0
w 397 396 374 0
w 397 396 -374 0
w 397 -396 374 1
w 397 -396 -374 1
w 398 397 375 1
w 398 397 -375 0
w 398 -397 375 1
w 398 -397 -375 0
w 399 398 376 1
w 399 398 -376 0
w 399 -398 376 1
w 399 -398 -376 0
w 400 399 377 1
w 400 399 -377 1
w 400 -399 377 1
w 400 -399 -377 0
w 401 400 378 1
w 401 400 -378 1
w 401 -400 378 0
w 401 -400 -378 0
w 402 401 379 0
w 402 401 -379 1
w 402 -401 379 1
w 402 -401 -379 0
w 403 402 380 0
w 403 402 -380 0
w 403 -402 380 1
w 403 -402 -380 1
w 404 403 381 0
w 404 403 -381 0
w 404 -403 381 1
w 404 -403 -381 1
w 405 404 382 1
w 405 404 -382 1
w 405 -404 382 0
w 405 -404 -382 0
w 406 405 383 0
w 406 405 -383 1
w 406 -405 383 0
w 406 -405 -383 1
w 407 406 384 1
w 407 406 -384 0
w 407 -406 384 0
w 407 -406 -384 1
w 408 407 385 1
w 408 407 -385 0
w 408 -407 385 0
w 408 -407 -385 0
w 409 408 386 0.802632
w 409 408 -386 0.565958
w 409 -408 386 0.0447511
w 409 -408 -386 0.447355
w 410 409 387 0.728053
w 410 409 -387 0.199885
w 410 -409 387 0.538244
w 410 -409 -387 0.0723329
w 411 410 388 1
w 411 410 -388 0
w 411 -410 388 0
w 411 -410 -388 0
w 412 411 389 1
w 412 411 -389 0
w 412 -411 389 0
w 412 -411 -389 1
w 413 412 390 0
w 413 412 -390 1
w 413 -412 390 0
w 413 -412 -390 0
w 414 413 391 1
w 414 413 -391 1
w 414 -413 391 0
w 414 -413 -391 0
w 415 392 0
w 415 -392 1
w 416 415 393 0.790132
w 416 415 -393 0.42533
w 416 -415 393 0.374304
w 416 -415 -393 0.561372
w 417 416 394 1
w 417 416 -394 0
w 417 -416 394 1
w 417 -416 -394 1
w 418 417 395 1
w 418 417 -395 1
w 418 -417 395 0
w 418 -417 -395 0
w 419 418 396 0.687649
w 419 418 -396 0.420649
w 419 -418 396 0.509992
w 419 -418 -396 0.836423
w 420 419 397 1
w 420 419 -397 1
w 420 -419 397 1
w 420 -419 -397 0
w 421 420 398 1
w 421 420 -398 0
w 421 -420 398 0
w 421 -420 -398 1
w 422 421 399 0
w 422 421 -399 0
w 422 -421 399 1
w 422 -421 -399 0
w 423 422 400 1
w 423 422 -400 1
w 423 -422 400 0
w 423 -422 -400 0
w 424 423 401 0
w 424 423 -401 0
w 424 -423 401 1
w 424 -423 -401 0
w 425 424 402 0
w 425 424 -402 1
w 425 -424 402 1
w 425 -424 -402 1
w 426 425 403 1
w 426 425 -403 0
w 426 -425 403 0
w 426 -425 -403 1
w 427 426 404 1
w 427 426 -404 1
w 427 -426 404 1
w 427 -426 -404 0
w 428 427 405 1
w 428 427 -405 0
w 428 -427 405 0
w 428 -427 -405 1
w 429 428 406 1
w 429 428 -406 1
w 429 -428 406 1
w 429 -428 -406 0
w 430 429 407 1
w 430 429 -407 0
w 430 -429 407 1
w 430 -429 -407 1
w 431 430 408 0
w 431 430 -408 1
w 431 -430 408 0
w 431 -430 -408 0
w 432 431 409 0.759169
w 432 431 -409 0.0271037
w 432 -431 409 0.480577
w 432 -431 -409 0.924471
w 433 432 410 1
w 433 432 -410 1
w 433 -432 410 0
w 433 -432 -410 1
w 434 433 411 0.0687658
w 434 433 -411 0.239595
w 434 -433 411 0.599911
w 434 -433 -411 0.365411
w 435 434 412 0.985972
w 435 434 -412 0.219269
w 435 -434 412 0.758941
w 435 -434 -412 0.325786
w 436 435 413 0
w 436 435 -413 1
w 436 -435 413 1
w 436 -435 -413 1
w 437 436 414 0
w 437 436 -414 1
w 437 -436 414 0
w 437 -436 -414 0
w 438 415 0
w 438 -415 1
w 439 438 416 0
w 439 438 -416 1
w 439 -438 416 1
w 439 -438 -416 1
w 440 439 417 1
w 440 439 -417 0
w 440 -439 417 0
w 440 -439 -417 1
w 441 440 418 0
w 441 440 -418 1
w 441 -440 418 0
w 441 -440 -418 0
w 442 441 419 1
w 442 441 -419 1
w 442 -441 419 1
w 442 -441 -419 0
w 443 442 420 0
w 443 442 -420 1
w 443 -442 420 1
w 443 -442 -420 0
w 444 443 421 1
w 444 443 -421 0
w 444 -443 421 1
w 444 -443 -421 0
w 445 444 422 0
w 445 444 -422 1
w 445 -444 422 1
w 445 -444 -422 1
w 446 445 423 0.71886
w 446 445 -423 0.103931
w 446 -445 423 0.986345
w 446 -445 -423 0.803821
w 447 446 424 0.666987
w 447 446 -424 0.254195
w 447 -446 424 0.404268
w 447 -446 -424 0.333602
w 448 447 425 0.759948
w 448 447 -425 0.326003
w 448 -447 425 0.82733
w 448 -447 -425 0.287569
w 449 448 426 1
w 449 448 -426 1
w 449 -448 426 0
w 449 -448 -426 0
w 450 449 427 0.409031
w 450 449 -427 0.235052
w 450 -449 427 0.99025
w 450 -449 -427 0.227406
w 451 450 428 0
w 451 450 -428 1
w 451 -450 428 0
w 451 -450 -428 1
w 452 451 429 1
w 452 451 -429 1
w 452 -451 429 1
w 452 -451 -429 0
w 453 452 430 0
w 453 452 -430 1
w 453 -452 430 0
w 453 -452 -430 0
w 454 453 431 0.706818
w 454 453 -431 0.662568
w 454 -453 431 0.105198
w 454 -453 -431 0.417042
w 455 454 432 1
w 455 454 -432 1
w 455 -454 432 0
w 455 -454 -432 0
w 456 455 433 0.572637
w 456 455 -433 0.567268
w 456 -455 433 0.2198
w 456 -455 -433 0.294134
w 457 456 434 0.321824
w 457 456 -434 0.782401
w 457 -456 434 0.133654
w 457 -456 -434 0.0637754
w 458 457 435 1
w 458 457 -435 1
w 458 -457 435 1
w 458 -457 -435 0
w 459 458 436 1
w 459 458 -436 1
w 459 -458 436 0
w 459 -458 -436 1
w 460 459 437 0
w 460 459 -437 1
w 460 -459 437 1
w 460 -459 -437 1
w 461 438 0
w 461 -438 1
w 462 461 439 1
w 462 461 -439 0
w 462 -461 439 1
w 462 -461 -439 0
w 463 462 440 0
w 463 462 -440 0
w 463 -462 440 1
w 463 -462 -440 0
w 464 463 441 1
w 464 463 -441 0
w 464 -463 441 1
w 464 -463 -441 0
w 465 464 442 0
w 465 464 -442 0
w 465 -464 442 0
w 465 -464 -442 1
w 466 465 443 0.383033
w 466 465 -443 0.594379
w 466 -465 443 0.216032
w 466 -465 -443 0.821415
w 467 466 444 0
w 467 466 -444 1
w 467 -466 444 0
w 467 -466 -444 1
w 468 467 445 1
w 468 467 -445 0
w 468 -467 445 0
w 468 -467 -445 1
w 469 468 446 1
w 469 468 -446 1
w 469 -468 446 0
w 469 -468 -446 0
w 470 469 447 0.141286
w 470 469 -447 0.312502
w 470 -469 447 0.189322
w 470 -469 -447 0.5909
w 471 470 448 0.388532
w 471 470 -448 0.597022
w 471 -470 448 0.207254
w 471 -470 -448 0.150813
w 472 471 449 1
w 472 471 -449 0
w 472 -471 449 1
w 472 -471 -449 1
w 473 472 450 1
w 473 472 -450 1
w 473 -472 450 0
w 473 -472 -450 1
w 474 473 451 0
w 474 473 -451 1
w 474 -473 451 0
w 474 -473 -451 1
w 475 474 452 1
w 475 474 -452 0
w 475 -474 452 0
w 475 -474 -452 0
w 476 475 453 0.640464
w 476 475 -453 0.26722
w 476 -475 453 0.100121
w 476 -475 -453 0.231364
w 477 476 454 1
w 477 476 -454 1
w 477 -476 454 1
w 477 -476 -454 0
w 478 477 455 0
w 478 477 -455 0
w 478 -477 455 1
w 478 -477 -455 1
w 479 478 456 0.210977
w 479 478 -456 0.248832
w 479 -478 456 0.404577
w 479 -478 -456 0.284956
w 480 479 457 1
w 480 479 -457 1
w 480 -479 457 1
w 480 -479 -457 0
w 481 480 458 1
w 481 480 -458 0
w 481 -480 458 0
w 481 -480 -458 1
w 482 481 459 1
w 482 481 -459 0
w 482 -481 459 0
w 482 -481 -459 0
w 483 482 460 1
w 483 482 -460 1
w 483 -482 460 0
w 483 -482 -460 0
w 484 461 1
w 484 -461 0
w 485 484 462 1
w 485 484 -462 0
w 485 -484 462 1
w 485 -484 -462 0
w 486 485 463 0
w 486 485 -463 1
w 486 -485 463 1
w 486 -485 -463 1
w 487 486 464 1
w 487 486 -464 0
w 487 -486 464 0
w 487 -486 -464 0
w 488 487 465 0.169379
w 488 487 -465 0.938221
w 488 -487 465 0.0379654
w 488 -487 -465 0.39981
w 489 488 466 1
w 489 488 -466 1
w 489 -488 466 1
w 489 -488 -466 0
w 490 489 467 1
w 490 489 -467 1
w 490 -489 467 0
w 490 -489 -467 0
w 491 490 468 0
w 491 490 -468 1
w 491 -490 468 0
w 491 -490 -468 0
w 492 491 469 0.492477
w 492 491 -469 0.210168
w 492 -491 469 0.540531
w 492 -491 -469 0.0515932
w 493 492 470 0
w 493 492 -470 0
w 493 -492 470 1
w 493 -492 -470 0
w 494 493 471 1
w 494 493 -471 1
w 494 -493 471 0
w 494 -493 -471 1
w 495 494 472 0
w 495 494 -472 0
w 495 -494 472 0
w 495 -494 -472 1
w 496 495 473 0.554047
w 496 495 -473 0.250977
w 496 -495 473 0.788768
w 496 -495 -473 0.118489
w 497 496 474 1
w 497 496 -474 1
w 497 -496 474 0
w 497 -496 -474 1
w 498 497 475 0.116907
w 498 497 -475 0.439934
w 498 -497 475 0.435945
w 498 -497 -475 0.1685
w 499 498 476 0.517617
w 499 498 -476 0.318369
w 499 -498 476 0.980048
w 499 -498 -476 0.449036
w 500 499 477 1
w 500 499 -477 1
w 500 -499 477 1
w 500 -499 -477 0
w 501 500 478 0
w 501 500 -478 1
w 501 -500 478 1
w 501 -500 -478 0
w 502 501 479 0
w 502 501 -479 0
w 502 -501 479 0
w 502 -501 -479 1
w 503 502 480 0.19196
w 503 502 -480 0.279695
w 503 -502 480 0.690264
w 503 -502 -480 0.81639
w 504 503 481 1
w 504 503 -481 1
w 504 -503 481 1
w 504 -503 -481 0
w 505 504 482 0
w 505 504 -482 1
w 505 -504 482 1
w 505 -504 -482 0
w 506 505 483 0.157063
w 506 505 -483 0.886435
w 506 -505 483 0.53811
w 506 -505 -483 0.250708
w 507 484 0
w 507 -484 1
w 508 507 485 0.417803
w 508 507 -485 0.869956
w 508 -507 485 0.0426227
w 508 -507 -485 0.952674
w 509 508 486 0.689943
w 509 508 -486 0.738522
w 509 -508 486 0.782603
w 509 -508 -486 0.455753
w 510 509 487 0.0622985
w 510 509 -487 0.146017
w 510 -509 487 0.746873
w 510 -509 -487 0.571759
w 511 510 488 0
w 511 510 -488 0
w 511 -510 488 1
w 511 -510 -488 1
w 512 511 489 1
w 512 511 -489 0
w 512 -511 489 0
w 512 -511 -489 0
w 513 512 490 1
w 513 512 -490 0
w 513 -512 490 1
w 513 -512 -490 1
w 514 513 491 1
w 514 513 -491 0
w 514 -513 491 0
w 514 -513 -491 0
w 515 514 492 0
w 515 514 -492 1
w 515 -514 492 0
w 515 -514 -492 0
w 516 515 493 1
w 516 515 -493 0
w 516 -515 493 0
w 516 -515 -493 0
w 517 516 494 1
w 517 516 -494 0
w 517 -516 494 1
w 517 -516 -494 1
w 518 517 495 1
w 518 517 -495 0
w 518 -517 495 1
w 518 -517 -495 1
w 519 518 496 0
w 519 518 -496 0
w 519 -518 496 0
w 519 -518 -496 1
w 520 519 497 0
w 520 519 -497 0
w 520 -519 497 1
w 520 -519 -497 0
w 521 520 498 0
w 521 520 -498 0
w 521 -520 498 1
w 521 -520 -498 1
w 522 521 499 0
w 522 521 -499 1
w 522 -521 499 0
w 522 -521 -499 0
w 523 522 500 1
w 523 522 -500 0
w 523 -522 500 0
w 523 -522 -500 1
w 524 523 501 0
w 524 523 -501 1
w 524 -523 501 1
w 524 -523 -501 1
w 525 524 502 1
w 525 524 -502 0
w 525 -524 502 1
w 525 -524 -502 1
w 526 525 503 1
w 526 525 -503 1
w 526 -525 503 0
w 526 -525 -503 1
w 527 526 504 1
w 527 526 -504 0
w 527 -526 504 1
w 527 -526 -504 1
w 528 527 505 0
w 528 527 -505 1
w 528 -527 505 0
w 528 -527 -505 1
w 529 528 506 0
w 529 528 -506 0
w 529 -528 506 1
w 529 -528 -506 0